benchmarks/bfuzz0/217121002173122914811531167433213511381.smt2
(set-logic QF_FP)
(declare-const x0 (_ FloatingPoint 8 24))
(declare-const x1 (_ FloatingPoint 8 24))
(declare-const x2 (_ FloatingPoint 8 24))
(declare-const x3 (_ FloatingPoint 8 24))
(declare-const x4 (_ FloatingPoint 8 24))
(declare-const x5 (_ FloatingPoint 8 24))
(declare-const x6 (_ FloatingPoint 8 24))
(declare-const x7 (_ FloatingPoint 8 24))
(declare-const x8 (_ FloatingPoint 8 24))
(declare-const x9 (_ FloatingPoint 8 24))
(declare-const x10 (_ FloatingPoint 8 24))
(declare-const x11 (_ FloatingPoint 8 24))
(declare-const x12 (_ FloatingPoint 8 24))
(assert (fp.eq (fp.sub RNE (fp.mul RNE x10 x3) (fp.neg x1)) (fp.div RNE (fp.mul RNE x8 x0) (fp.mul RNE x6 x5))))
(assert (fp.leq (fp.sub RNE (fp.sub RNE x2 x2) (fp.div RNE x11 x3)) (fp.add RNE (fp.mul RNE x10 x7) (fp.div RNE x9 x2))))
(assert (fp.gt (fp.div RNE (fp.add RNE x9 x6) (fp.add RNE x12 x4)) (fp.neg (fp.neg x1))))
(check-sat)
