db/data/217121002173122914811531167433213511381.z3.out
sat
-------------------
139.811817595
